NAME : 1
COMMENT : Generated instance No. 1
TYPE : CVRP
DIMENSION : 21
EDGE_WEIGHT_TYPE : EUC_2D
CAPACITY : 25
NODE_COORD_SECTION
 1 500 500
 2 31 636
 3 314 508
 4 907 249
 5 410 755
 6 228 76
 7 289 161
 8 929 808
 9 633 871
 10 803 186
 11 892 539
 12 807 896
 13 318 110
 14 227 427
 15 818 860
 16 6 510
 17 417 222
 18 119 337
 19 942 323
 20 518 703
 21 363 971
DEMAND_SECTION
1 0
2 4
3 4
4 6
5 7
6 2
7 3
8 1
9 5
10 1
11 8
12 1
13 3
14 1
15 2
16 2
17 4
18 6
19 7
20 5
21 8
DEPOT_SECTION
 1
 -1
EOF